assets/logs/6_16x16_clingo/6_16x16_clingo.solution.log

-----------------------------------------------------------------
|  0|152| 50|164| 42|156|189|160|190| 36|  0|  0|122|207|118|  0|
-----------------------------------------------------------------
| 52|142| 56|154|187|162|132| 38|191|  0|188| 34|211|  0|231|205|
-----------------------------------------------------------------
|150| 48|166| 44| 58| 40|158|  0|130|192|178|124|186|120|209|116|
-----------------------------------------------------------------
|140| 54|144|185|168|134| 60|194|  0|193|128|182| 32|213|203|229|
-----------------------------------------------------------------
|109|148| 46|136| 73|196|170|  0|  0|180|  0|176|126|184|114|215|
-----------------------------------------------------------------
|  0|138|107|146|183|117| 71| 62|172|121|195|106|  0| 30|227|201|
-----------------------------------------------------------------
|105|111|181|115| 37| 75|198|119| 69|104|174|123| 65|199|217|112|
-----------------------------------------------------------------
|179|218| 43| 77|200|214| 39|102| 64|  0| 67|197|108|221| 28|225|
-----------------------------------------------------------------
| 45|103|113|216| 41| 35| 81|212|169| 16|125| 76|  0| 63|110|219|
-----------------------------------------------------------------
|220|177| 47|202| 79|210|167| 66|100| 78| 55| 18|127| 74|223| 26|
-----------------------------------------------------------------
|101|204|222|175| 49| 83| 33|171| 53| 68| 14| 80| 22| 84| 61|  0|
-----------------------------------------------------------------
|224|  9| 99| 29|208|173| 51|165| 12| 98| 20| 57| 72|129| 24|  0|
-----------------------------------------------------------------
| 97| 27|206| 11| 85| 31| 10| 19|145|155| 70| 96| 82| 59| 86|131|
-----------------------------------------------------------------
|  3|226|  7| 25| 91| 17|159|  6|163|  2|147|153|  0|137| 92|  0|
-----------------------------------------------------------------
|230| 95|  1| 87| 13|  8| 21|143|157|  0|  0|139| 94|151|133| 88|
-----------------------------------------------------------------
|  0|  5|228| 93| 23| 89| 15|161|  4|141|  0|149|135| 90|  0|  0|
-----------------------------------------------------------------

| n = 16 | k = 9 | coverage = 239, 93.359375%
 Time 300.001
 Name 6_16x16_clingo

