assets/logs/6_16x16_clingo/6_16x16_clingo.log
clingo version 5.4.0
Reading from ...ts/logs/6_16x16_clingo/knights_tour.lp ...
Solving...
Answer: 1
occ(1,1,11) occ(1,15,11) occ(1,5,8) occ(1,4,9) occ(1,6,13) occ(1,3,8) occ(1,2,14) occ(1,5,9) occ(1,6,1) occ(2,15,3) occ(3,14,10) coverage(6)
Optimization: -6
Answer: 2
occ(1,1,11) occ(1,15,11) occ(1,5,8) occ(1,4,9) occ(1,6,13) occ(1,3,8) occ(1,2,14) occ(1,5,9) occ(1,6,1) occ(2,15,3) occ(3,14,10) coverage(7) occ(6,14,4) occ(4,16,5)
Optimization: -7
Answer: 3
occ(1,1,11) occ(1,15,11) occ(1,5,8) occ(1,4,9) occ(1,6,13) occ(1,3,8) occ(1,2,14) occ(1,5,9) occ(1,6,1) occ(2,15,3) occ(3,14,10) coverage(8) occ(6,14,4) occ(7,15,13) occ(4,16,5) occ(5,16,11)
Optimization: -8
Answer: 4
occ(1,1,11) occ(1,15,11) occ(1,5,8) occ(1,4,9) occ(1,6,13) occ(1,3,8) occ(1,2,14) occ(1,5,9) occ(1,6,1) occ(2,15,3) occ(3,14,10) coverage(9) occ(6,14,4) occ(7,15,13) occ(4,16,5) occ(5,16,11) occ(8,16,3)
Optimization: -9
Answer: 5
occ(1,1,11) occ(1,15,11) occ(1,5,8) occ(1,4,9) occ(1,6,13) occ(1,3,8) occ(1,2,14) occ(1,5,9) occ(1,6,1) occ(2,15,3) occ(3,14,10) coverage(11) occ(6,14,4) occ(7,15,13) occ(10,15,1) occ(4,16,5) occ(5,16,11) occ(8,16,3) occ(9,16,15)
Optimization: -11
Answer: 6
occ(1,1,11) occ(1,15,11) occ(1,5,8) occ(1,4,9) occ(1,6,13) occ(1,3,8) occ(1,2,14) occ(1,5,9) occ(1,6,1) occ(2,15,3) occ(3,14,10) coverage(13) occ(12,11,2) occ(10,13,1) occ(6,14,4) occ(11,14,16) occ(7,15,13) occ(8,15,2) occ(4,16,5) occ(5,16,11) occ(9,16,15)
Optimization: -13
Answer: 7
occ(1,1,11) occ(1,15,11) occ(1,5,8) occ(1,4,9) occ(1,6,13) occ(1,3,8) occ(1,2,14) occ(1,5,9) occ(1,6,1) occ(2,15,3) occ(3,14,10) coverage(15) occ(10,12,6) occ(8,13,8) occ(12,13,4) occ(6,14,6) occ(11,14,16) occ(7,15,13) occ(13,15,14) occ(14,15,5) occ(4,16,5) occ(5,16,11) occ(9,16,15)
Optimization: -15
Answer: 8
occ(1,1,11) occ(1,15,11) occ(1,5,8) occ(1,4,9) occ(1,6,13) occ(1,3,8) occ(1,2,14) occ(1,5,9) occ(1,6,1) occ(2,15,3) occ(3,14,10) coverage(17) occ(10,12,6) occ(8,13,8) occ(12,13,4) occ(15,13,15) occ(6,14,6) occ(9,14,15) occ(7,15,13) occ(13,15,16) occ(14,15,5) occ(4,16,5) occ(5,16,11) occ(11,16,14) occ(16,16,3)
Optimization: -17
Answer: 9
occ(1,1,11) occ(1,15,11) occ(1,5,8) occ(1,4,9) occ(1,6,13) occ(1,3,8) occ(1,2,14) occ(1,5,9) occ(1,6,1) occ(2,15,3) occ(3,14,10) coverage(106) occ(24,1,6) occ(111,1,13) occ(189,1,8) occ(225,1,10) occ(26,2,4) occ(37,2,5) occ(113,2,15) occ(185,2,9) occ(191,2,10) occ(215,2,8) occ(223,2,12) occ(22,3,5) occ(28,3,2) occ(39,3,3) occ(109,3,12) occ(187,3,7) occ(217,3,10) occ(227,3,11) occ(32,4,3) occ(35,4,4) occ(41,4,1) occ(47,4,6) occ(107,4,10) occ(115,4,16) occ(179,4,12) occ(183,4,8) occ(193,4,11) occ(213,4,7) occ(221,4,13) occ(20,5,6) occ(30,5,1) occ(36,5,2) occ(40,5,4) occ(43,5,3) occ(119,5,13) occ(133,5,14) occ(181,5,10) occ(219,5,11) occ(229,5,12) occ(33,6,3) occ(34,6,4) occ(42,6,2) occ(45,6,5) occ(49,6,7) occ(105,6,9) occ(117,6,15) occ(123,6,14) occ(135,6,16) occ(177,6,11) occ(195,6,10) occ(211,6,8) occ(18,7,5) occ(31,7,1) occ(38,7,3) occ(51,7,9) occ(89,7,6) occ(121,7,12) occ(125,7,16) occ(131,7,15) occ(231,7,11) occ(44,8,1) occ(64,8,9) occ(91,8,4) occ(103,8,8) occ(129,8,13) occ(137,8,15) occ(163,8,12) occ(171,8,14) occ(175,8,10) occ(197,8,11) occ(209,8,7) occ(16,9,4) occ(23,9,5) occ(29,9,2) occ(46,9,3) occ(53,9,10) occ(69,9,6) occ(87,9,7) occ(104,9,16) occ(127,9,15) occ(159,9,13) occ(165,9,14) occ(173,9,12) occ(205,9,8) occ(15,10,2) occ(21,10,7) occ(27,10,4) occ(62,10,8) occ(66,10,10) occ(93,10,3) occ(101,10,9) occ(102,10,14) occ(139,10,16) occ(153,10,15) occ(161,10,11) occ(169,10,13) occ(199,10,12) occ(207,10,6) occ(14,11,3) occ(17,11,4) occ(25,11,6) occ(48,11,2) occ(55,11,11) occ(67,11,5) occ(68,11,12) occ(71,11,7) occ(85,11,8) occ(151,11,13) occ(157,11,14) occ(167,11,15) occ(203,11,9) occ(12,12,5) occ(13,12,1) occ(19,12,6) occ(56,12,3) occ(59,12,10) occ(60,12,7) occ(70,12,14) occ(73,12,9) occ(95,12,4) occ(99,12,8) occ(100,12,13) occ(141,12,15) occ(147,12,12) occ(155,12,16) occ(201,12,11) occ(10,13,7) occ(11,13,3) occ(50,13,1) occ(57,13,12) occ(58,13,5) occ(61,13,8) occ(65,13,4) occ(72,13,16) occ(77,13,10) occ(83,13,9) occ(90,13,15) occ(97,13,6) occ(98,13,11) occ(143,13,13) occ(149,13,14) occ(8,14,9) occ(9,14,5) occ(54,14,4) occ(63,14,6) occ(75,14,8) occ(78,14,14) occ(79,14,12) occ(84,14,15) occ(145,14,11) occ(5,15,8) occ(6,15,7) occ(52,15,2) occ(74,15,15) occ(81,15,10) occ(82,15,13) occ(88,15,14) occ(92,15,16) occ(96,15,12) occ(4,16,5) occ(7,16,6) occ(76,16,13) occ(80,16,15) occ(86,16,16) occ(94,16,14)
Optimization: -106
Answer: 10
occ(1,1,11) occ(1,15,11) occ(1,5,8) occ(1,4,9) occ(1,6,13) occ(1,3,8) occ(1,2,14) occ(1,5,9) occ(1,6,1) occ(2,15,3) occ(3,14,10) coverage(128) occ(24,1,2) occ(118,1,15) occ(185,1,10) occ(225,1,14) occ(245,1,8) occ(249,1,4) occ(255,1,5) occ(26,2,4) occ(37,2,5) occ(183,2,8) occ(223,2,12) occ(229,2,13) occ(243,2,10) occ(247,2,6) occ(253,2,7) occ(22,3,3) occ(28,3,2) occ(39,3,7) occ(116,3,16) occ(120,3,14) occ(187,3,9) occ(217,3,6) occ(221,3,10) occ(227,3,15) occ(241,3,12) occ(251,3,5) occ(20,4,1) occ(32,4,3) occ(35,4,4) occ(41,4,5) occ(107,4,10) occ(122,4,16) occ(141,4,13) occ(181,4,7) occ(189,4,11) occ(219,4,8) occ(231,4,14) occ(30,5,1) occ(33,5,2) occ(40,5,6) occ(43,5,3) occ(77,5,4) occ(109,5,12) occ(114,5,15) occ(124,5,14) occ(143,5,11) occ(179,5,5) occ(193,5,10) occ(215,5,7) occ(239,5,13) occ(17,6,5) occ(18,6,2) occ(34,6,4) occ(44,6,7) occ(75,6,6) occ(105,6,9) occ(111,6,10) occ(126,6,16) occ(139,6,14) occ(177,6,3) occ(191,6,12) occ(211,6,8) occ(233,6,15) occ(237,6,11) occ(31,7,1) occ(38,7,7) occ(42,7,5) occ(45,7,4) occ(46,7,9) occ(73,7,8) occ(79,7,3) occ(108,7,16) occ(112,7,14) occ(113,7,12) occ(131,7,15) occ(145,7,10) occ(195,7,11) occ(213,7,6) occ(235,7,13) occ(15,8,4) occ(16,8,3) occ(19,8,6) occ(36,8,5) occ(71,8,10) occ(103,8,8) occ(106,8,14) occ(129,8,13) occ(137,8,15) occ(147,8,12) occ(175,8,2) occ(197,8,9) occ(209,8,7) occ(14,9,1) occ(23,9,5) occ(29,9,2) occ(47,9,3) occ(48,9,10) occ(81,9,4) occ(110,9,15) occ(115,9,13) occ(127,9,11) occ(133,9,16) occ(149,9,14) occ(13,10,5) occ(21,10,7) occ(27,10,4) occ(50,10,12) occ(69,10,11) occ(87,10,2) occ(93,10,3) occ(101,10,9) occ(104,10,13) occ(119,10,16) occ(135,10,14) occ(153,10,15) occ(173,10,1) occ(199,10,10) occ(203,10,8) occ(207,10,6) occ(11,11,7) occ(12,11,2) occ(25,11,6) occ(49,11,4) occ(54,11,9) occ(60,11,8) occ(83,11,3) occ(91,11,1) occ(95,11,5) occ(102,11,11) occ(117,11,14) occ(125,11,12) occ(151,11,13) occ(9,12,5) occ(10,12,4) occ(52,12,11) occ(58,12,6) occ(67,12,12) occ(70,12,14) occ(85,12,1) occ(89,12,3) occ(99,12,8) occ(100,12,13) occ(121,12,15) occ(155,12,16) occ(171,12,2) occ(201,12,9) occ(205,12,7) occ(51,13,3) occ(56,13,8) occ(62,13,9) occ(72,13,16) occ(90,13,15) occ(97,13,6) occ(98,13,11) occ(123,13,13) occ(157,13,14) occ(161,13,10) occ(169,13,4) occ(7,14,6) occ(8,14,5) occ(57,14,7) occ(61,14,9) occ(65,14,11) occ(68,14,13) occ(78,14,14) occ(84,14,15) occ(159,14,12) occ(163,14,8) occ(5,15,8) occ(6,15,7) occ(53,15,4) occ(64,15,10) occ(74,15,15) occ(82,15,13) occ(88,15,14) occ(92,15,16) occ(96,15,12) occ(167,15,5) occ(4,16,5) occ(55,16,6) occ(59,16,8) occ(63,16,10) occ(66,16,12) occ(76,16,13) occ(80,16,15) occ(86,16,16) occ(94,16,14) occ(165,16,7)
Optimization: -128
Answer: 11
occ(1,1,11) occ(1,15,11) occ(1,5,8) occ(1,4,9) occ(1,6,13) occ(1,3,8) occ(1,2,14) occ(1,5,9) occ(1,6,1) occ(2,15,3) occ(3,14,10) coverage(192) occ(28,1,2) occ(118,1,15) occ(136,1,12) occ(142,1,7) occ(146,1,3) occ(158,1,5) occ(164,1,6) occ(185,1,10) occ(215,1,13) occ(219,1,9) occ(225,1,14) occ(26,2,4) occ(112,2,13) occ(140,2,9) occ(144,2,5) occ(148,2,1) occ(156,2,7) occ(160,2,3) occ(183,2,8) occ(217,2,11) occ(223,2,12) occ(24,3,2) occ(30,3,1) occ(116,3,16) occ(120,3,14) occ(134,3,13) occ(138,3,11) occ(152,3,4) occ(162,3,5) occ(166,3,7) occ(170,3,3) occ(187,3,9) occ(213,3,12) occ(221,3,10) occ(227,3,15) occ(32,4,3) occ(41,4,1) occ(42,4,8) occ(107,4,10) occ(110,4,12) occ(114,4,14) occ(122,4,16) occ(132,4,15) occ(150,4,2) occ(154,4,6) occ(168,4,5) occ(181,4,7) occ(189,4,11) occ(22,5,1) occ(40,5,6) occ(43,5,3) occ(75,5,7) occ(109,5,12) occ(128,5,14) occ(172,5,4) occ(179,5,5) occ(193,5,10) occ(211,5,11) occ(229,5,16) occ(239,5,13) occ(34,6,4) occ(39,6,2) occ(44,6,7) occ(77,6,5) occ(105,6,9) occ(108,6,11) occ(111,6,10) occ(124,6,15) occ(130,6,16) occ(177,6,3) occ(191,6,12) occ(207,6,8) occ(20,7,2) occ(38,7,7) occ(45,7,4) occ(46,7,9) occ(73,7,8) occ(79,7,3) occ(113,7,12) occ(126,7,13) occ(174,7,5) occ(195,7,11) occ(209,7,10) occ(231,7,15) occ(237,7,14) occ(15,8,4) occ(16,8,3) occ(36,8,5) occ(37,8,1) occ(47,8,6) occ(54,8,16) occ(103,8,8) occ(106,8,10) occ(117,8,15) occ(131,8,14) occ(175,8,2) occ(197,8,9) occ(205,8,7) occ(233,8,13) occ(14,9,5) occ(18,9,1) occ(48,9,10) occ(52,9,14) occ(64,9,12) occ(71,9,9) occ(81,9,4) occ(85,9,2) occ(99,9,7) occ(104,9,8) occ(115,9,13) occ(127,9,11) occ(133,9,16) occ(176,9,6) occ(235,9,15) occ(10,10,6) occ(13,10,5) occ(17,10,3) occ(35,10,2) occ(49,10,7) occ(50,10,12) occ(56,10,15) occ(66,10,14) occ(69,10,11) occ(87,10,4) occ(101,10,9) occ(119,10,16) occ(129,10,13) occ(173,10,1) occ(199,10,10) occ(203,10,8) occ(11,11,7) occ(12,11,4) occ(19,11,1) occ(58,11,13) occ(62,11,11) occ(68,11,16) occ(83,11,3) occ(89,11,2) occ(96,11,10) occ(97,11,6) occ(102,11,9) occ(125,11,12) occ(135,11,15) occ(141,11,14) occ(178,11,5) occ(8,12,7) occ(9,12,5) occ(21,12,3) occ(33,12,1) occ(51,12,6) occ(67,12,12) occ(70,12,14) occ(92,12,13) occ(100,12,11) occ(121,12,15) occ(139,12,16) occ(155,12,10) occ(171,12,2) occ(182,12,4) occ(201,12,9) occ(7,13,7) occ(31,13,3) occ(53,13,4) occ(60,13,12) occ(72,13,16) occ(91,13,1) occ(94,13,11) occ(95,13,5) occ(98,13,9) occ(123,13,13) occ(137,13,14) occ(143,13,15) occ(180,13,6) occ(184,13,2) occ(6,14,6) occ(23,14,4) occ(29,14,5) occ(59,14,8) occ(65,14,13) occ(78,14,14) occ(84,14,15) occ(90,14,12) occ(93,14,3) occ(153,14,9) occ(157,14,11) occ(161,14,7) occ(169,14,1) occ(190,14,2) occ(5,15,8) occ(25,15,2) occ(55,15,5) occ(61,15,10) occ(74,15,15) occ(82,15,13) occ(88,15,14) occ(145,15,16) occ(149,15,12) occ(159,15,9) occ(165,15,4) occ(186,15,1) occ(4,16,5) occ(27,16,4) occ(57,16,7) occ(63,16,12) occ(76,16,13) occ(80,16,15) occ(86,16,16) occ(147,16,14) occ(151,16,10) occ(163,16,6) occ(167,16,2) occ(188,16,3)
Optimization: -192
Answer: 12
occ(1,1,11) occ(1,15,11) occ(1,5,8) occ(1,4,9) occ(1,6,13) occ(1,3,8) occ(1,2,14) occ(1,5,9) occ(1,6,1) occ(2,15,3) occ(3,14,10) coverage(207) occ(80,1,2) occ(102,1,5) occ(108,1,4) occ(112,1,8) occ(118,1,9) occ(124,1,6) occ(130,1,7) occ(189,1,10) occ(193,1,14) occ(199,1,13) occ(60,2,3) occ(64,2,7) occ(98,2,4) occ(106,2,2) occ(110,2,6) occ(116,2,11) occ(122,2,8) occ(128,2,9) occ(132,2,5) occ(191,2,12) occ(195,2,16) occ(201,2,15) occ(62,3,5) occ(78,3,3) occ(82,3,1) occ(100,3,6) occ(104,3,4) occ(114,3,9) occ(120,3,10) occ(126,3,7) occ(164,3,12) occ(170,3,15) occ(176,3,16) occ(187,3,11) occ(197,3,14) occ(202,3,13) occ(58,4,2) occ(66,4,8) occ(69,4,7) occ(76,4,1) occ(96,4,3) occ(134,4,4) occ(161,4,11) occ(162,4,10) occ(168,4,13) occ(174,4,14) occ(203,4,16) occ(204,4,15) occ(26,5,1) occ(56,5,4) occ(67,5,5) occ(74,5,3) occ(84,5,2) occ(136,5,6) occ(140,5,10) occ(151,5,7) occ(159,5,13) occ(166,5,11) occ(172,5,16) occ(178,5,15) occ(185,5,12) occ(200,5,14) occ(28,6,3) occ(68,6,7) occ(71,6,6) occ(94,6,2) occ(138,6,8) occ(149,6,5) occ(155,6,10) occ(160,6,11) occ(163,6,12) occ(198,6,16) occ(205,6,15) occ(206,6,14) occ(24,7,2) occ(54,7,5) occ(65,7,6) occ(72,7,4) occ(79,7,9) occ(86,7,1) occ(90,7,3) occ(142,7,11) occ(153,7,8) occ(157,7,12) occ(180,7,16) occ(183,7,13) occ(190,7,15) occ(196,7,14) occ(30,8,2) occ(61,8,3) occ(70,8,6) occ(73,8,5) occ(77,8,7) occ(81,8,11) occ(92,8,1) occ(117,8,9) occ(146,8,8) occ(147,8,4) occ(158,8,10) occ(165,8,13) occ(181,8,15) occ(186,8,14) occ(194,8,16) occ(22,9,1) occ(32,9,4) occ(52,9,6) occ(63,9,5) occ(88,9,2) occ(115,9,11) occ(119,9,7) occ(133,9,8) occ(143,9,3) occ(144,9,10) occ(156,9,12) occ(182,9,15) occ(188,9,16) occ(192,9,14) occ(20,10,3) occ(33,10,11) occ(50,10,4) occ(59,10,2) occ(75,10,6) occ(83,10,12) occ(111,10,8) occ(145,10,5) occ(148,10,9) occ(154,10,10) occ(167,10,14) occ(179,10,16) occ(184,10,13) occ(18,11,5) occ(34,11,3) occ(35,11,13) occ(48,11,2) occ(85,11,14) occ(107,11,11) occ(113,11,10) occ(121,11,6) occ(131,11,9) occ(135,11,7) occ(141,11,4) occ(152,11,8) occ(171,11,15) occ(11,12,8) occ(14,12,2) occ(23,12,6) occ(31,12,12) occ(38,12,4) occ(53,12,3) occ(57,12,1) occ(109,12,9) occ(129,12,7) occ(137,12,5) occ(150,12,10) occ(169,12,13) occ(177,12,15) occ(13,13,10) occ(16,13,4) occ(21,13,8) occ(36,13,2) occ(37,13,14) occ(40,13,6) occ(46,13,1) occ(87,13,15) occ(105,13,12) occ(123,13,7) occ(127,13,9) occ(139,13,3) occ(173,13,16) occ(4,14,5) occ(9,14,9) occ(12,14,1) occ(15,14,8) occ(19,14,6) occ(25,14,7) occ(29,14,11) occ(39,14,12) occ(44,14,3) occ(51,14,4) occ(55,14,2) occ(93,14,15) occ(99,14,16) occ(175,14,14) occ(7,15,7) occ(8,15,4) occ(27,15,9) occ(41,15,10) occ(42,15,5) occ(45,15,6) occ(49,15,2) occ(89,15,16) occ(97,15,14) occ(103,15,13) occ(125,15,8) occ(5,16,9) occ(6,16,6) occ(10,16,2) occ(17,16,7) occ(43,16,8) occ(47,16,4) occ(91,16,14) occ(95,16,16) occ(101,16,15)
Optimization: -207
Answer: 13
occ(1,1,11) occ(1,15,11) occ(1,5,8) occ(1,4,9) occ(1,6,13) occ(1,3,8) occ(1,2,14) occ(1,5,9) occ(1,6,1) occ(2,15,3) occ(3,14,10) coverage(208) occ(80,1,2) occ(102,1,5) occ(108,1,4) occ(112,1,8) occ(118,1,9) occ(124,1,6) occ(130,1,7) occ(189,1,10) occ(193,1,14) occ(199,1,13) occ(60,2,3) occ(64,2,7) occ(98,2,4) occ(106,2,2) occ(110,2,6) occ(116,2,11) occ(122,2,8) occ(128,2,9) occ(132,2,5) occ(191,2,12) occ(195,2,16) occ(201,2,15) occ(62,3,5) occ(78,3,3) occ(82,3,1) occ(100,3,6) occ(104,3,4) occ(114,3,9) occ(120,3,10) occ(126,3,7) occ(164,3,12) occ(170,3,15) occ(176,3,16) occ(187,3,11) occ(197,3,14) occ(202,3,13) occ(58,4,2) occ(66,4,8) occ(69,4,7) occ(76,4,1) occ(96,4,3) occ(134,4,4) occ(161,4,11) occ(162,4,10) occ(168,4,13) occ(174,4,14) occ(203,4,16) occ(204,4,15) occ(26,5,1) occ(56,5,4) occ(67,5,5) occ(74,5,3) occ(84,5,2) occ(136,5,6) occ(140,5,10) occ(151,5,7) occ(159,5,13) occ(166,5,11) occ(172,5,16) occ(178,5,15) occ(185,5,12) occ(200,5,14) occ(28,6,3) occ(68,6,7) occ(71,6,6) occ(94,6,2) occ(138,6,8) occ(149,6,5) occ(155,6,10) occ(160,6,11) occ(163,6,12) occ(198,6,16) occ(205,6,15) occ(206,6,14) occ(24,7,2) occ(54,7,5) occ(65,7,6) occ(72,7,4) occ(79,7,9) occ(86,7,1) occ(90,7,3) occ(142,7,11) occ(153,7,8) occ(157,7,12) occ(180,7,16) occ(183,7,13) occ(190,7,15) occ(196,7,14) occ(30,8,2) occ(61,8,3) occ(70,8,6) occ(73,8,5) occ(77,8,7) occ(81,8,11) occ(92,8,1) occ(117,8,9) occ(146,8,8) occ(147,8,4) occ(158,8,10) occ(165,8,13) occ(181,8,15) occ(186,8,14) occ(194,8,12) occ(207,8,16) occ(22,9,1) occ(32,9,4) occ(52,9,6) occ(63,9,5) occ(88,9,2) occ(115,9,11) occ(119,9,7) occ(133,9,8) occ(143,9,3) occ(144,9,10) occ(156,9,12) occ(182,9,15) occ(188,9,16) occ(192,9,14) occ(20,10,3) occ(33,10,11) occ(50,10,4) occ(59,10,2) occ(75,10,6) occ(83,10,12) occ(111,10,8) occ(145,10,5) occ(148,10,9) occ(154,10,10) occ(167,10,14) occ(179,10,16) occ(184,10,13) occ(18,11,5) occ(34,11,3) occ(35,11,13) occ(48,11,2) occ(85,11,14) occ(107,11,11) occ(113,11,10) occ(121,11,6) occ(131,11,9) occ(135,11,7) occ(141,11,4) occ(152,11,8) occ(171,11,15) occ(11,12,8) occ(14,12,2) occ(23,12,6) occ(31,12,12) occ(38,12,4) occ(53,12,3) occ(57,12,1) occ(109,12,9) occ(129,12,7) occ(137,12,5) occ(150,12,10) occ(169,12,13) occ(177,12,15) occ(13,13,10) occ(16,13,4) occ(21,13,8) occ(36,13,2) occ(37,13,14) occ(40,13,6) occ(46,13,1) occ(87,13,15) occ(105,13,12) occ(123,13,7) occ(127,13,9) occ(139,13,3) occ(173,13,16) occ(4,14,5) occ(9,14,9) occ(12,14,1) occ(15,14,8) occ(19,14,6) occ(25,14,7) occ(29,14,11) occ(39,14,12) occ(44,14,3) occ(51,14,4) occ(55,14,2) occ(93,14,15) occ(99,14,16) occ(175,14,14) occ(7,15,7) occ(8,15,4) occ(27,15,9) occ(41,15,10) occ(42,15,5) occ(45,15,6) occ(49,15,2) occ(89,15,16) occ(97,15,14) occ(103,15,13) occ(125,15,8) occ(5,16,9) occ(6,16,6) occ(10,16,2) occ(17,16,7) occ(43,16,8) occ(47,16,4) occ(91,16,14) occ(95,16,16) occ(101,16,15)
Optimization: -208
Answer: 14
occ(1,1,11) occ(1,15,11) occ(1,5,8) occ(1,4,9) occ(1,6,13) occ(1,3,8) occ(1,2,14) occ(1,5,9) occ(1,6,1) occ(2,15,3) occ(3,14,10) coverage(226) occ(24,1,6) occ(34,1,13) occ(61,1,14) occ(62,1,3) occ(81,1,12) occ(85,1,8) occ(94,1,7) occ(110,1,1) occ(26,2,8) occ(36,2,15) occ(37,2,9) occ(40,2,11) occ(44,2,7) occ(59,2,12) occ(64,2,1) occ(77,2,13) occ(83,2,10) occ(87,2,6) occ(92,2,5) occ(108,2,3) occ(114,2,4) occ(22,3,5) occ(28,3,10) occ(32,3,12) occ(35,3,7) occ(38,3,13) occ(42,3,9) occ(60,3,4) occ(63,3,15) occ(79,3,11) occ(90,3,3) occ(96,3,6) occ(105,3,14) occ(106,3,1) occ(112,3,2) occ(20,4,7) occ(39,4,10) occ(46,4,8) occ(57,4,11) occ(66,4,2) occ(71,4,16) occ(75,4,14) occ(89,4,5) occ(98,4,4) occ(107,4,12) occ(116,4,3) occ(124,4,1) occ(216,4,13) occ(30,5,11) occ(33,5,6) occ(45,5,12) occ(58,5,5) occ(65,5,16) occ(69,5,14) occ(88,5,4) occ(91,5,7) occ(103,5,13) occ(104,5,2) occ(109,5,10) occ(118,5,1) occ(122,5,3) occ(218,5,15) occ(18,6,8) occ(31,6,4) occ(41,6,11) occ(47,6,10) occ(48,6,7) occ(55,6,12) occ(68,6,3) occ(73,6,15) occ(93,6,9) occ(100,6,5) occ(115,6,6) occ(126,6,2) occ(151,6,16) occ(214,6,14) occ(16,7,10) occ(43,7,13) occ(49,7,8) occ(56,7,6) occ(67,7,15) occ(70,7,1) occ(86,7,5) occ(95,7,7) occ(101,7,12) occ(102,7,3) occ(111,7,9) occ(117,7,4) occ(120,7,2) occ(149,7,14) occ(207,7,11) occ(220,7,16) occ(29,8,5) occ(50,8,8) occ(53,8,11) occ(72,8,3) occ(82,8,4) occ(99,8,10) occ(113,8,7) occ(119,8,2) occ(128,8,1) occ(138,8,6) occ(147,8,12) occ(153,8,15) occ(205,8,9) occ(212,8,13) occ(222,8,14) occ(14,9,11) occ(27,9,3) occ(51,9,9) occ(54,9,7) occ(80,9,2) occ(84,9,6) occ(97,9,8) occ(123,9,1) occ(132,9,4) occ(141,9,10) occ(155,9,13) occ(165,9,16) occ(209,9,12) occ(210,9,15) occ(25,10,1) occ(52,10,9) occ(74,10,4) occ(121,10,3) occ(130,10,2) occ(136,10,7) occ(137,10,11) occ(140,10,5) occ(145,10,13) occ(167,10,14) occ(194,10,16) occ(195,10,10) occ(199,10,6) occ(203,10,8) occ(224,10,15) occ(12,11,10) occ(13,11,4) occ(78,11,1) occ(125,11,2) occ(129,11,6) occ(134,11,5) occ(139,11,9) occ(142,11,3) occ(143,11,11) occ(157,11,12) occ(163,11,15) occ(170,11,7) occ(196,11,14) occ(197,11,8) occ(208,11,16) occ(211,11,13) occ(6,12,6) occ(23,12,2) occ(76,12,3) occ(127,12,4) occ(131,12,8) occ(135,12,12) occ(144,12,1) occ(159,12,14) occ(168,12,5) occ(169,12,13) occ(174,12,10) occ(192,12,15) occ(193,12,11) occ(198,12,16) occ(201,12,7) occ(225,12,9) occ(4,13,4) occ(7,13,7) occ(10,13,9) occ(11,13,5) occ(15,13,3) occ(133,13,10) occ(152,13,2) occ(161,13,16) occ(172,13,8) occ(181,13,6) occ(191,13,13) occ(206,13,15) occ(213,13,12) occ(217,13,14) occ(223,13,11) occ(8,14,7) occ(17,14,1) occ(21,14,3) occ(146,14,2) occ(154,14,4) occ(160,14,5) occ(166,14,6) occ(171,14,12) occ(176,14,9) occ(183,14,8) occ(186,14,14) occ(189,14,11) occ(190,14,16) occ(200,14,15) occ(221,14,13) occ(5,15,8) occ(9,15,6) occ(150,15,1) occ(156,15,2) occ(164,15,4) occ(175,15,9) occ(179,15,5) occ(180,15,12) occ(184,15,16) occ(185,15,10) occ(204,15,14) occ(215,15,13) occ(219,15,15) occ(19,16,2) occ(148,16,3) occ(158,16,4) occ(162,16,6) occ(173,16,11) occ(177,16,7) occ(178,16,10) occ(182,16,14) occ(187,16,12) occ(188,16,15) occ(202,16,16)
Optimization: -226
Answer: 15
occ(1,1,11) occ(1,15,11) occ(1,5,8) occ(1,4,9) occ(1,6,13) occ(1,3,8) occ(1,2,14) occ(1,5,9) occ(1,6,1) occ(2,15,3) occ(3,14,10) coverage(231) occ(42,1,7) occ(62,1,15) occ(82,1,9) occ(88,1,14) occ(98,1,13) occ(104,1,8) occ(108,1,6) occ(197,1,4) occ(205,1,2) occ(215,1,3) occ(225,1,10) occ(229,1,12) occ(29,2,15) occ(40,2,5) occ(44,2,9) occ(64,2,13) occ(80,2,7) occ(86,2,12) occ(90,2,16) occ(96,2,11) occ(102,2,10) occ(195,2,2) occ(199,2,6) occ(203,2,4) occ(209,2,3) occ(213,2,1) occ(223,2,8) occ(25,3,14) occ(49,3,6) occ(53,3,2) occ(54,3,15) occ(60,3,16) occ(78,3,9) occ(84,3,10) occ(94,3,13) occ(100,3,12) occ(106,3,7) occ(110,3,5) occ(187,3,3) occ(207,3,1) occ(217,3,4) occ(227,3,11) occ(27,4,16) occ(31,4,14) occ(38,4,6) occ(46,4,10) occ(47,4,8) occ(51,4,4) occ(56,4,13) occ(66,4,12) occ(76,4,11) occ(92,4,15) occ(189,4,1) occ(193,4,3) occ(201,4,5) occ(211,4,2) occ(221,4,7) occ(14,5,1) occ(23,5,13) occ(33,5,16) occ(52,5,14) occ(55,5,3) occ(58,5,15) occ(68,5,10) occ(69,5,6) occ(87,5,7) occ(112,5,4) occ(161,5,12) occ(185,5,2) occ(219,5,5) occ(12,6,3) occ(19,6,16) occ(36,6,7) occ(45,6,9) occ(48,6,11) occ(67,6,4) occ(70,6,12) occ(71,6,8) occ(74,6,10) occ(83,6,6) occ(125,6,5) occ(145,6,15) occ(159,6,14) occ(191,6,2) occ(16,7,2) occ(21,7,14) occ(35,7,15) occ(50,7,13) occ(57,7,4) occ(73,7,10) occ(85,7,8) occ(89,7,6) occ(114,7,3) occ(127,7,7) occ(131,7,9) occ(163,7,11) occ(179,7,5) occ(183,7,1) occ(10,8,2) occ(17,8,15) occ(34,8,8) occ(39,8,12) occ(43,8,10) occ(65,8,5) occ(72,8,11) occ(81,8,7) occ(91,8,4) occ(123,8,6) occ(143,8,14) occ(147,8,16) occ(157,8,13) occ(165,8,9) occ(181,8,3) occ(11,9,15) occ(18,9,1) occ(37,9,14) occ(59,9,5) occ(75,9,11) occ(79,9,9) occ(116,9,2) occ(121,9,4) occ(129,9,8) occ(133,9,10) occ(141,9,16) occ(167,9,7) occ(168,9,12) occ(177,9,6) occ(8,10,1) occ(9,10,13) occ(15,10,16) occ(32,10,7) occ(41,10,11) occ(63,10,6) occ(93,10,5) occ(117,10,3) occ(138,10,2) occ(149,10,15) occ(155,10,12) occ(162,10,8) occ(166,10,10) occ(169,10,9) occ(170,10,14) occ(175,10,4) occ(13,11,14) occ(20,11,2) occ(61,11,4) occ(77,11,10) occ(95,11,7) occ(115,11,1) occ(118,11,3) occ(119,11,5) occ(135,11,11) occ(139,11,15) occ(151,11,13) occ(152,11,12) occ(156,11,8) occ(172,11,16) occ(173,11,6) occ(6,12,2) occ(7,12,14) occ(22,12,4) occ(30,12,6) occ(97,12,5) occ(136,12,1) occ(137,12,13) occ(140,12,3) occ(153,12,11) occ(154,12,10) occ(160,12,7) occ(164,12,9) occ(171,12,8) occ(182,12,16) occ(186,12,12) occ(216,12,15) occ(5,13,12) occ(24,13,6) occ(28,13,8) occ(99,13,3) occ(113,13,2) occ(120,13,4) occ(142,13,5) occ(150,13,11) occ(158,13,9) occ(174,13,15) occ(184,13,14) occ(188,13,10) occ(194,13,7) occ(202,13,13) occ(220,13,16) occ(4,14,1) occ(105,14,5) occ(109,14,3) occ(126,14,6) occ(130,14,4) occ(134,14,2) occ(144,14,7) occ(180,14,15) occ(190,14,8) occ(196,14,9) occ(206,14,12) occ(214,14,16) occ(218,14,14) occ(224,14,13) occ(228,14,11) occ(26,15,7) occ(101,15,4) occ(111,15,1) occ(122,15,5) occ(148,15,10) occ(176,15,16) occ(192,15,6) occ(200,15,12) occ(204,15,14) occ(210,15,13) occ(222,15,15) occ(230,15,9) occ(103,16,6) occ(107,16,4) occ(124,16,7) occ(128,16,5) occ(132,16,3) occ(146,16,8) occ(178,16,14) occ(198,16,10) occ(208,16,11) occ(212,16,15) occ(226,16,12)
Optimization: -231
Answer: 16
occ(1,1,11) occ(1,15,11) occ(1,5,8) occ(1,4,9) occ(1,6,13) occ(1,3,8) occ(1,2,14) occ(1,5,9) occ(1,6,1) occ(2,15,3) occ(3,14,10) coverage(232) occ(37,1,10) occ(43,1,5) occ(51,1,3) occ(119,1,15) occ(123,1,13) occ(153,1,2) occ(157,1,6) occ(161,1,8) occ(165,1,4) occ(190,1,7) occ(191,1,9) occ(208,1,14) occ(35,2,12) occ(39,2,8) occ(53,2,1) occ(57,2,3) occ(133,2,7) occ(143,2,2) occ(155,2,4) occ(163,2,6) occ(188,2,5) occ(189,2,11) occ(192,2,9) occ(206,2,16) occ(212,2,13) occ(41,3,6) occ(45,3,4) occ(49,3,2) occ(59,3,5) occ(117,3,16) occ(121,3,14) occ(125,3,12) occ(131,3,9) occ(151,3,1) occ(159,3,7) occ(167,3,3) occ(179,3,11) occ(187,3,13) occ(193,3,10) occ(210,3,15) occ(33,4,13) occ(55,4,2) occ(61,4,7) occ(129,4,11) occ(135,4,6) occ(141,4,1) occ(145,4,3) occ(169,4,5) occ(183,4,12) occ(186,4,4) occ(194,4,10) occ(195,4,8) occ(204,4,15) occ(214,4,14) occ(230,4,16) occ(47,5,3) occ(74,5,5) occ(110,5,1) occ(115,5,15) occ(127,5,13) occ(137,5,4) occ(149,5,2) occ(171,5,7) occ(177,5,12) occ(181,5,10) occ(185,5,14) occ(197,5,6) occ(216,5,16) occ(31,6,14) occ(63,6,8) occ(72,6,7) occ(107,6,12) occ(108,6,3) occ(118,6,6) occ(122,6,10) occ(139,6,2) occ(147,6,4) occ(173,6,9) occ(184,6,5) occ(196,6,11) occ(202,6,16) occ(228,6,15) occ(38,7,5) occ(66,7,13) occ(70,7,9) occ(76,7,6) occ(105,7,10) occ(106,7,1) occ(112,7,2) occ(113,7,16) occ(116,7,4) occ(120,7,8) occ(124,7,12) occ(175,7,11) occ(182,7,3) occ(199,7,7) occ(200,7,14) occ(218,7,15) occ(29,8,15) occ(40,8,7) occ(44,8,3) occ(65,8,9) occ(68,8,11) occ(78,8,4) occ(103,8,8) occ(109,8,13) occ(180,8,1) occ(198,8,12) occ(201,8,5) occ(215,8,6) occ(219,8,2) occ(222,8,14) occ(226,8,16) occ(17,9,10) occ(36,9,6) occ(42,9,5) occ(46,9,1) occ(64,9,14) occ(77,9,12) occ(82,9,7) occ(104,9,2) occ(111,9,15) occ(114,9,3) occ(126,9,11) occ(170,9,9) occ(213,9,8) occ(217,9,4) occ(220,9,16) occ(19,10,12) occ(27,10,16) occ(48,10,3) occ(56,10,11) occ(67,10,8) occ(75,10,14) occ(79,10,10) occ(80,10,5) occ(101,10,9) occ(128,10,13) occ(168,10,7) occ(178,10,2) occ(203,10,4) occ(211,10,6) occ(221,10,1) occ(224,10,15) occ(15,11,11) occ(23,11,13) occ(34,11,7) occ(50,11,5) occ(54,11,9) occ(62,11,15) occ(69,11,10) occ(81,11,12) occ(84,11,6) occ(85,11,14) occ(102,11,1) occ(172,11,8) occ(176,11,4) occ(205,11,2) occ(223,11,3) occ(10,12,2) occ(13,12,9) occ(21,12,11) occ(25,12,15) occ(30,12,4) occ(52,12,7) occ(58,12,12) occ(73,12,13) occ(99,12,10) occ(100,12,3) occ(130,12,14) occ(166,12,8) occ(174,12,6) occ(209,12,5) occ(225,12,1) occ(11,13,7) occ(12,13,4) occ(20,13,8) occ(28,13,2) occ(32,13,6) occ(60,13,14) occ(71,13,11) occ(83,13,13) occ(86,13,5) occ(87,13,15) occ(97,13,12) occ(98,13,1) occ(132,13,16) occ(146,13,9) occ(156,13,10) occ(207,13,3) occ(4,14,1) occ(7,14,8) occ(8,14,3) occ(18,14,6) occ(26,14,4) occ(92,14,5) occ(93,14,15) occ(138,14,14) occ(148,14,11) occ(154,14,12) occ(160,14,7) occ(164,14,9) occ(227,14,2) occ(9,15,6) occ(14,15,5) occ(22,15,7) occ(88,15,4) occ(89,15,16) occ(95,15,13) occ(96,15,2) occ(134,15,15) occ(140,15,12) occ(144,15,8) occ(152,15,14) occ(158,15,9) occ(231,15,1) occ(5,16,9) occ(6,16,2) occ(16,16,7) occ(24,16,5) occ(90,16,6) occ(91,16,14) occ(94,16,4) occ(136,16,13) occ(142,16,10) occ(150,16,12) occ(162,16,8) occ(229,16,3)
Optimization: -232
Answer: 17
occ(1,1,11) occ(1,15,11) occ(1,5,8) occ(1,4,9) occ(1,6,13) occ(1,3,8) occ(1,2,14) occ(1,5,9) occ(1,6,1) occ(2,15,3) occ(3,14,10) coverage(233) occ(37,1,10) occ(43,1,5) occ(51,1,3) occ(119,1,15) occ(123,1,13) occ(153,1,2) occ(157,1,6) occ(161,1,8) occ(165,1,4) occ(190,1,7) occ(191,1,9) occ(208,1,14) occ(35,2,12) occ(39,2,8) occ(53,2,1) occ(57,2,3) occ(133,2,7) occ(143,2,2) occ(155,2,4) occ(163,2,6) occ(188,2,5) occ(189,2,11) occ(192,2,9) occ(206,2,16) occ(212,2,13) occ(232,2,15) occ(41,3,6) occ(45,3,4) occ(49,3,2) occ(59,3,5) occ(117,3,16) occ(121,3,14) occ(125,3,12) occ(131,3,9) occ(151,3,1) occ(159,3,7) occ(167,3,3) occ(179,3,11) occ(187,3,13) occ(193,3,10) occ(210,3,15) occ(33,4,13) occ(55,4,2) occ(61,4,7) occ(129,4,11) occ(135,4,6) occ(141,4,1) occ(145,4,3) occ(169,4,5) occ(183,4,12) occ(186,4,4) occ(194,4,10) occ(195,4,8) occ(204,4,15) occ(214,4,14) occ(230,4,16) occ(47,5,3) occ(74,5,5) occ(110,5,1) occ(115,5,15) occ(127,5,13) occ(137,5,4) occ(149,5,2) occ(171,5,7) occ(177,5,12) occ(181,5,10) occ(185,5,14) occ(197,5,6) occ(216,5,16) occ(31,6,14) occ(63,6,8) occ(72,6,7) occ(107,6,12) occ(108,6,3) occ(118,6,6) occ(122,6,10) occ(139,6,2) occ(147,6,4) occ(173,6,9) occ(184,6,5) occ(196,6,11) occ(202,6,16) occ(228,6,15) occ(38,7,5) occ(66,7,13) occ(70,7,9) occ(76,7,6) occ(105,7,10) occ(106,7,1) occ(112,7,2) occ(113,7,16) occ(116,7,4) occ(120,7,8) occ(124,7,12) occ(175,7,11) occ(182,7,3) occ(199,7,7) occ(200,7,14) occ(218,7,15) occ(29,8,15) occ(40,8,7) occ(44,8,3) occ(65,8,9) occ(68,8,11) occ(78,8,4) occ(103,8,8) occ(109,8,13) occ(180,8,1) occ(198,8,12) occ(201,8,5) occ(215,8,6) occ(219,8,2) occ(222,8,14) occ(226,8,16) occ(17,9,10) occ(36,9,6) occ(42,9,5) occ(46,9,1) occ(64,9,14) occ(77,9,12) occ(82,9,7) occ(104,9,2) occ(111,9,15) occ(114,9,3) occ(126,9,11) occ(170,9,9) occ(213,9,8) occ(217,9,4) occ(220,9,16) occ(19,10,12) occ(27,10,16) occ(48,10,3) occ(56,10,11) occ(67,10,8) occ(75,10,14) occ(79,10,10) occ(80,10,5) occ(101,10,9) occ(128,10,13) occ(168,10,7) occ(178,10,2) occ(203,10,4) occ(211,10,6) occ(221,10,1) occ(224,10,15) occ(15,11,11) occ(23,11,13) occ(34,11,7) occ(50,11,5) occ(54,11,9) occ(62,11,15) occ(69,11,10) occ(81,11,12) occ(84,11,6) occ(85,11,14) occ(102,11,1) occ(172,11,8) occ(176,11,4) occ(205,11,2) occ(223,11,3) occ(10,12,2) occ(13,12,9) occ(21,12,11) occ(25,12,15) occ(30,12,4) occ(52,12,7) occ(58,12,12) occ(73,12,13) occ(99,12,10) occ(100,12,3) occ(130,12,14) occ(166,12,8) occ(174,12,6) occ(209,12,5) occ(225,12,1) occ(11,13,7) occ(12,13,4) occ(20,13,8) occ(28,13,2) occ(32,13,6) occ(60,13,14) occ(71,13,11) occ(83,13,13) occ(86,13,5) occ(87,13,15) occ(97,13,12) occ(98,13,1) occ(132,13,16) occ(146,13,9) occ(156,13,10) occ(207,13,3) occ(4,14,1) occ(7,14,8) occ(8,14,3) occ(18,14,6) occ(26,14,4) occ(92,14,5) occ(93,14,15) occ(138,14,14) occ(148,14,11) occ(154,14,12) occ(160,14,7) occ(164,14,9) occ(227,14,2) occ(9,15,6) occ(14,15,5) occ(22,15,7) occ(88,15,4) occ(89,15,16) occ(95,15,13) occ(96,15,2) occ(134,15,15) occ(140,15,12) occ(144,15,8) occ(152,15,14) occ(158,15,9) occ(231,15,1) occ(5,16,9) occ(6,16,2) occ(16,16,7) occ(24,16,5) occ(90,16,6) occ(91,16,14) occ(94,16,4) occ(136,16,13) occ(142,16,10) occ(150,16,12) occ(162,16,8) occ(229,16,3)
Optimization: -233
*** Info : (clingo): INTERRUPTED by signal!
SATISFIABLE

TIME LIMIT   : 1
Models       : 17+
  Optimum    : unknown
Optimization : -233
Calls        : 1
Time         : 300.000s (Solving: 263.85s 1st Model: 0.02s Unsat: 0.00s)
CPU Time     : 300.001s
